117 36 137 125 19 90 9 47 82 
147 15 106 94 99 114 23 43 29 74 97 
132 2 48 139 25 180 172 190 
87 168 68 76 186 119 45 
73 145 161 35 14 124 181 101 154 141 105 
133 91 
18 26 8 34 100 104 194 32 22 127 83 59 
1 67 150 135 80 195 130 11 156 148 78 108 
140 196 71 166 151 182 116 79 49 52 
4 44 50 165 176 56 33 129 70 61 27 75 
115 16 60 98 6 88 40 24 110 
7 41 153 54 185 103 134 53 102 10 
158 120 92 131 69 126 111 
112 13 173 113 122 142 96 174 107 
46 157 72 85 109 64 160 164 191 77 
155 55 143 51 187 162 169 39 179 197 
81 149 188 184 89 38 95 178 138 42 
30 20 152 146 121 62 189 177 65 198 
63 199 93 193 175 84 159 183 128 200 
5 86 66 21 170 17 
123 163 136 58 37 28 
57 171 31 192 
3 12 118 167 
144 

